unsat
(forall ((A (_ BitVec 20))
         (B (_ BitVec 20))
         (C (_ BitVec 20))
         (D (_ BitVec 20))
         (E (_ BitVec 20))
         (F (_ BitVec 20))
         (G (_ BitVec 20))
         (H (_ BitVec 20))
         (I (_ BitVec 20))
         (J (_ BitVec 20))
         (K (_ BitVec 20))
         (L (_ BitVec 20))
         (M (_ BitVec 20))
         (N (_ BitVec 22))
         (O (_ BitVec 14))
         (P (_ BitVec 14))
         (Q (_ BitVec 17))
         (R (_ BitVec 20))
         (S (_ BitVec 1))
         (T (_ BitVec 1))
         (U (_ BitVec 20))
         (V (_ BitVec 20))
         (W (_ BitVec 20))
         (X (_ BitVec 20))
         (Y (_ BitVec 20))
         (Z (_ BitVec 20))
         (A1 (_ BitVec 20))
         (B1 (_ BitVec 20))
         (C1 (_ BitVec 38))
         (D1 (_ BitVec 38))
         (E1 (_ BitVec 38))
         (F1 (_ BitVec 38))
         (G1 (_ BitVec 20))
         (H1 (_ BitVec 20))
         (I1 (_ BitVec 20))
         (J1 (_ BitVec 20))
         (K1 (_ BitVec 20))
         (L1 (_ BitVec 17))
         (M1 (_ BitVec 17))
         (N1 (_ BitVec 17))
         (O1 (_ BitVec 18))
         (P1 (_ BitVec 1))
         (Q1 (_ BitVec 9))
         (R1 (_ BitVec 20))
         (S1 (_ BitVec 37))
         (T1 (_ BitVec 22))
         (U1 (_ BitVec 20))
         (V1 (_ BitVec 1))
         (W1 (_ BitVec 1))
         (X1 (_ BitVec 20))
         (Y1 (_ BitVec 22))
         (Z1 (_ BitVec 14))
         (A2 (_ BitVec 22))
         (B2 (_ BitVec 22))
         (C2 (_ BitVec 14))
         (D2 (_ BitVec 22))
         (E2 (_ BitVec 14))
         (F2 (_ BitVec 22))
         (G2 (_ BitVec 20))
         (H2 (_ BitVec 1))
         (I2 (_ BitVec 1))
         (J2 (_ BitVec 20))
         (K2 (_ BitVec 17))
         (L2 (_ BitVec 1))
         (M2 (_ BitVec 1))
         (N2 (_ BitVec 1))
         (O2 (_ BitVec 20))
         (P2 (_ BitVec 20))
         (Q2 (_ BitVec 20))
         (R2 (_ BitVec 1))
         (S2 (_ BitVec 1))
         (T2 (_ BitVec 1))
         (U2 (_ BitVec 14))
         (V2 (_ BitVec 20))
         (W2 (_ BitVec 20))
         (X2 (_ BitVec 1))
         (Y2 (_ BitVec 38))
         (Z2 (_ BitVec 20))
         (A3 (_ BitVec 20))
         (B3 (_ BitVec 1))
         (C3 (_ BitVec 1))
         (D3 (_ BitVec 20))
         (E3 (_ BitVec 1))
         (F3 (_ BitVec 20))
         (G3 (_ BitVec 20))
         (H3 (_ BitVec 18))
         (I3 (_ BitVec 22))
         (J3 (_ BitVec 20))
         (K3 (_ BitVec 20))
         (L3 (_ BitVec 20))
         (M3 (_ BitVec 20))
         (N3 (_ BitVec 20))
         (O3 (_ BitVec 20))
         (P3 (_ BitVec 20))
         (Q3 (_ BitVec 18))
         (R3 (_ BitVec 1))
         (S3 (_ BitVec 17))
         (T3 (_ BitVec 17))
         (U3 (_ BitVec 20))
         (V3 (_ BitVec 20))
         (W3 (_ BitVec 38))
         (X3 (_ BitVec 22))
         (Y3 (_ BitVec 1))
         (Z3 (_ BitVec 14))
         (A4 (_ BitVec 38))
         (B4 (_ BitVec 14))
         (C4 (_ BitVec 20))
         (D4 (_ BitVec 1))
         (E4 (_ BitVec 1))
         (F4 (_ BitVec 1))
         (G4 (_ BitVec 1))
         (H4 (_ BitVec 1))
         (I4 (_ BitVec 1))
         (J4 (_ BitVec 1))
         (K4 (_ BitVec 1))
         (L4 (_ BitVec 1))
         (M4 (_ BitVec 1))
         (N4 (_ BitVec 16))
         (O4 (_ BitVec 1))
         (P4 (_ BitVec 1))
         (Q4 (_ BitVec 1))
         (R4 (_ BitVec 17))
         (S4 (_ BitVec 38))
         (T4 (_ BitVec 30))
         (U4 (_ BitVec 30))
         (V4 (_ BitVec 38))
         (W4 (_ BitVec 20))
         (X4 (_ BitVec 1))
         (Y4 (_ BitVec 20))
         (Z4 (_ BitVec 20))
         (A5 (_ BitVec 20))
         (B5 (_ BitVec 20))
         (C5 (_ BitVec 16))
         (D5 (_ BitVec 1))
         (E5 (_ BitVec 17))
         (F5 (_ BitVec 17))
         (G5 (_ BitVec 38))
         (H5 (_ BitVec 20))
         (I5 (_ BitVec 1))
         (J5 (_ BitVec 30))
         (K5 (_ BitVec 1))
         (L5 (_ BitVec 38))
         (M5 (_ BitVec 30)))
  (! (let ((a!1 (or ((_ bit2bool 0) S2)
                    ((_ bit2bool 0) E3)
                    ((_ bit2bool 1) Q)
                    ((_ bit2bool 2) Q)
                    (not ((_ bit2bool 0) Q))
                    (= (concat #b0 ((_ extract 18 0) R)) ((_ extract 19 0) S1))))
           (a!2 (or ((_ bit2bool 1) J)
                    ((_ bit2bool 0) U)
                    ((_ bit2bool 1) U)
                    ((_ bit2bool 2) U)
                    (not (= ((_ extract 1 1) V2) #b1))))
           (a!3 (or ((_ bit2bool 0) U)
                    ((_ bit2bool 1) V2)
                    ((_ bit2bool 1) U)
                    (not ((_ bit2bool 2) V2))
                    (not (= ((_ extract 1 1) J) #b1))))
           (a!4 (or (not (= O1 #b000000000000000000))
                    (not (= ((_ extract 1 1) Q3) #b1))
                    (= ((_ extract 1 1) H3) #b1)))
           (a!5 (or ((_ bit2bool 0) V2)
                    ((_ bit2bool 1) V2)
                    ((_ bit2bool 2) V2)
                    (= ((_ extract 2 2) J) #b1)
                    (not (= ((_ extract 2 2) U) #b1))))
           (a!6 (or ((_ bit2bool 0) V2)
                    ((_ bit2bool 1) V2)
                    ((_ bit2bool 2) V2)
                    ((_ bit2bool 1) U)
                    (not (= ((_ extract 1 1) J) #b1))))
           (a!7 (= ((_ extract 4 2)
                     (bvadd (concat #b00 A2) ((_ extract 37 14) G5)))
                   ((_ extract 18 16) Z2)))
           (a!8 (= ((_ extract 8 6)
                     (bvadd ((_ extract 37 10) D1) (concat #b000000 D2)))
                   ((_ extract 18 16) G2)))
           (a!9 (= ((_ extract 12 10)
                     (bvadd ((_ extract 37 6) Y2) (concat #b0000000000 F2)))
                   ((_ extract 18 16) D3)))
           (a!10 (= ((_ extract 6 4)
                      (bvadd ((_ extract 37 12) C1) (concat #x0 B2)))
                    ((_ extract 18 16) H1)))
           (a!11 ((_ extract 13 2)
                   (bvadd (concat #b000 ((_ extract 21 2) X3)) (concat #b0 T1))))
           (a!13 (concat ((_ extract 11 2)
                           (bvadd ((_ extract 37 4) F1) (concat #x000 I3)))
                         (bvadd ((_ extract 5 4) F1) ((_ extract 1 0) I3))
                         ((_ extract 3 0) F1)))
           (a!14 (concat ((_ extract 9 2)
                           (bvadd ((_ extract 37 6) Y2)
                                  (concat #b0000000000 F2)))
                         (bvadd ((_ extract 7 6) Y2) ((_ extract 1 0) F2))
                         ((_ extract 5 0) Y2)))
           (a!15 (concat ((_ extract 7 2)
                           (bvadd ((_ extract 37 8) E1) (concat #x00 N)))
                         (bvadd ((_ extract 1 0) N) ((_ extract 9 8) E1))
                         ((_ extract 7 0) E1)))
           (a!16 (concat ((_ extract 5 2)
                           (bvadd ((_ extract 37 10) D1) (concat #b000000 D2)))
                         (bvadd ((_ extract 11 10) D1) ((_ extract 1 0) D2))
                         ((_ extract 9 0) D1)))
           (a!17 (concat ((_ extract 3 2)
                           (bvadd ((_ extract 37 12) C1) (concat #x0 B2)))
                         (bvadd ((_ extract 13 12) C1) ((_ extract 1 0) B2))
                         ((_ extract 11 0) C1)))
           (a!18 (= (concat (bvadd ((_ extract 15 14) G5) ((_ extract 1 0) A2))
                            ((_ extract 13 0) G5))
                    ((_ extract 15 0) Z2)))
           (a!19 ((_ extract 16 14)
                   (bvadd (concat #b000 ((_ extract 21 2) X3)) (concat #b0 T1))))
           (a!20 (= ((_ extract 14 12)
                      (bvadd ((_ extract 37 4) F1) (concat #x000 I3)))
                    ((_ extract 18 16) K1)))
           (a!21 (= ((_ extract 18 16) I1)
                    ((_ extract 10 8)
                      (bvadd ((_ extract 37 8) E1) (concat #x00 N)))))
           (a!22 (= ((_ extract 5 5)
                      (bvadd (concat #b00 A2) ((_ extract 37 14) G5)))
                    #b0))
           (a!23 (= ((_ extract 7 7)
                      (bvadd ((_ extract 37 12) C1) (concat #x0 B2)))
                    #b0))
           (a!24 (= ((_ extract 13 13)
                      (bvadd ((_ extract 37 6) Y2) (concat #b0000000000 F2)))
                    #b0))
           (a!25 (= ((_ extract 3 3)
                      (bvadd ((_ extract 3 0) Y1) ((_ extract 19 16) V4)))
                    #b0))
           (a!26 ((_ extract 17 17)
                   (bvadd (concat #b000 ((_ extract 21 2) X3)) (concat #b0 T1))))
           (a!27 (= ((_ extract 15 15)
                      (bvadd ((_ extract 37 4) F1) (concat #x000 I3)))
                    #b0))
           (a!28 (= ((_ extract 9 9)
                      (bvadd ((_ extract 37 10) D1) (concat #b000000 D2)))
                    #b0))
           (a!29 (= ((_ extract 11 11)
                      (bvadd ((_ extract 37 8) E1) (concat #x00 N)))
                    #b0))
           (a!30 (or ((_ bit2bool 1) F5)
                     ((_ bit2bool 2) F5)
                     (not ((_ bit2bool 0) F5))
                     (= ((_ extract 19 0) W3)
                        (concat #b0 ((_ extract 18 0) V3)))))
           (a!31 (or ((_ bit2bool 1) Q)
                     ((_ bit2bool 2) Q)
                     (= S2 #b0)
                     (not (= E3 #b1))
                     (not ((_ bit2bool 0) Q))
                     (= (concat #b0 ((_ extract 18 0) R)) ((_ extract 19 0) S1)))))
     (let ((a!12 (= (concat a!11
                            (bvadd ((_ extract 1 0) T1) ((_ extract 3 2) X3))
                            ((_ extract 1 0) X3))
                    ((_ extract 15 0) U3))))
     (let ((a!32 (and a!1
                      (not ((_ bit2bool 9) B4))
                      (not ((_ bit2bool 8) B4))
                      (not ((_ bit2bool 7) B4))
                      (not ((_ bit2bool 6) B4))
                      (not ((_ bit2bool 5) B4))
                      (not ((_ bit2bool 4) B4))
                      (not ((_ bit2bool 3) B4))
                      (not ((_ bit2bool 2) B4))
                      (not ((_ bit2bool 1) B4))
                      (not ((_ bit2bool 0) B4))
                      (not ((_ bit2bool 3) U2))
                      (not ((_ bit2bool 2) U2))
                      (not ((_ bit2bool 1) U2))
                      (not ((_ bit2bool 0) U2))
                      (not ((_ bit2bool 19) I1))
                      (not ((_ bit2bool 7) E2))
                      (not ((_ bit2bool 6) E2))
                      (not ((_ bit2bool 5) E2))
                      (not ((_ bit2bool 4) E2))
                      (not ((_ bit2bool 3) E2))
                      (not ((_ bit2bool 2) E2))
                      (not ((_ bit2bool 1) E2))
                      (not ((_ bit2bool 0) E2))
                      (not ((_ bit2bool 19) V3))
                      (not ((_ bit2bool 19) D3))
                      (not ((_ bit2bool 19) R))
                      (not (= ((_ extract 17 17) Q3) #b1))
                      (not (= ((_ extract 17 17) H3) #b1))
                      (not ((_ bit2bool 19) G1))
                      (not ((_ bit2bool 19) Z2))
                      (not ((_ bit2bool 3) O))
                      (not ((_ bit2bool 5) P))
                      (or ((_ bit2bool 0) U)
                          (not ((_ bit2bool 0) V2))
                          (= ((_ extract 0 0) J) #b1))
                      (not ((_ bit2bool 5) C2))
                      (not ((_ bit2bool 4) C2))
                      (not ((_ bit2bool 3) C2))
                      (not ((_ bit2bool 2) C2))
                      (not ((_ bit2bool 1) C2))
                      (not ((_ bit2bool 0) C2))
                      (not ((_ bit2bool 6) O))
                      (or ((_ bit2bool 0) H3)
                          ((_ bit2bool 0) O1)
                          (not ((_ bit2bool 0) Q3)))
                      (not ((_ bit2bool 8) P))
                      (or ((_ bit2bool 0) Q3)
                          (not ((_ bit2bool 0) H3))
                          (= ((_ extract 0 0) O1) #b1))
                      (not ((_ bit2bool 6) P))
                      (not ((_ bit2bool 4) O))
                      (or ((_ bit2bool 0) V2)
                          ((_ bit2bool 2) V2)
                          ((_ bit2bool 2) U)
                          (not (= J #x00006)))
                      (not ((_ bit2bool 5) O))
                      (not ((_ bit2bool 7) P))
                      (not ((_ bit2bool 2) O))
                      (not ((_ bit2bool 4) P))
                      a!2
                      (not ((_ bit2bool 19) H1))
                      (or ((_ bit2bool 0) H3)
                          ((_ bit2bool 0) Q3)
                          (not ((_ bit2bool 0) O1)))
                      (not ((_ bit2bool 7) O))
                      (not ((_ bit2bool 9) P))
                      (not ((_ bit2bool 19) G2))
                      (not ((_ bit2bool 11) P))
                      (not ((_ bit2bool 9) O))
                      (not (= ((_ extract 17 17) O1) #b1))
                      a!3
                      (not ((_ bit2bool 10) O))
                      (not ((_ bit2bool 12) P))
                      (not ((_ bit2bool 0) Z1))
                      a!4
                      (or (not ((_ bit2bool 2) O1))
                          (not (= H3 #b000000000000000001))
                          (not (= Q3 #b000000000000000001)))
                      (not ((_ bit2bool 10) P))
                      (not ((_ bit2bool 8) O))
                      a!5
                      (not ((_ bit2bool 13) P))
                      (not ((_ bit2bool 1) Z1))
                      (not ((_ bit2bool 11) O))
                      (or ((_ bit2bool 0) V2)
                          ((_ bit2bool 0) U)
                          (not ((_ bit2bool 0) J)))
                      a!6
                      a!7
                      (= (bvadd ((_ extract 2 0) Y1) ((_ extract 18 16) V4))
                         ((_ extract 18 16) G1))
                      a!8
                      a!9
                      a!10
                      (not ((_ bit2bool 19) U3))
                      (not ((_ bit2bool 19) K1))
                      (or (not ((_ bit2bool 0) U))
                          (= ((_ extract 0 0) V2) #b1)
                          (= ((_ extract 0 0) J) #b1))
                      (or (not (= B1 #x00000)) (= U3 #x00000))
                      (or (not (= A1 #x00000)) (= K1 #x00000))
                      (or (not (= H5 #x00000)) (= D3 #x00000))
                      (not ((_ bit2bool 0) P))
                      (or (not (= Z #x00000)) (= I1 #x00000))
                      (not ((_ bit2bool 2) P))
                      (not ((_ bit2bool 0) O))
                      (or ((_ bit2bool 1) O1)
                          ((_ bit2bool 2) O1)
                          ((_ bit2bool 2) Q3)
                          (not ((_ bit2bool 2) H3))
                          (not ((_ bit2bool 1) H3)))
                      (or (not ((_ bit2bool 0) D4))
                          (not ((_ bit2bool 0) P1))
                          (not ((_ bit2bool 0) N2)))
                      (or (= I2 #b0)
                          (not ((_ bit2bool 0) Q1))
                          (not ((_ bit2bool 0) O4)))
                      (or (= F4 #b0) (not ((_ bit2bool 3) Q1)) (not (= M2 #b1)))
                      (or (= E4 #b0) (not ((_ bit2bool 1) Q1)) (not (= W1 #b1)))
                      (or (= G4 #b0) (not ((_ bit2bool 4) Q1)) (not (= L4 #b1)))
                      (or (= D5 #b0) (not ((_ bit2bool 2) Q1)) (not (= K4 #b1)))
                      (or (= H4 #b0) (not ((_ bit2bool 5) Q1)) (not (= X2 #b1)))
                      (or (= I4 #b0) (not ((_ bit2bool 6) Q1)) (not (= M4 #b1)))
                      (or (= L2 #b0) (not ((_ bit2bool 7) Q1)) (not (= T2 #b1)))
                      (or (= J4 #b0) (not ((_ bit2bool 8) Q1)) (not (= P4 #b1)))
                      (or ((_ bit2bool 2) N1)
                          ((_ bit2bool 1) N1)
                          (not ((_ bit2bool 0) N1))
                          a!12)
                      (not ((_ bit2bool 1) P))
                      (or ((_ bit2bool 1) S3)
                          ((_ bit2bool 2) S3)
                          (not ((_ bit2bool 0) S3))
                          (= a!13 ((_ extract 15 0) K1)))
                      (not ((_ bit2bool 3) P))
                      (not ((_ bit2bool 1) O))
                      (or ((_ bit2bool 1) E5)
                          ((_ bit2bool 2) E5)
                          (not ((_ bit2bool 0) E5))
                          (= ((_ extract 15 0) D3) a!14))
                      (or ((_ bit2bool 2) K2)
                          ((_ bit2bool 1) K2)
                          (not ((_ bit2bool 0) K2))
                          (= a!15 ((_ extract 15 0) I1)))
                      (or ((_ bit2bool 2) M1)
                          ((_ bit2bool 1) M1)
                          (not ((_ bit2bool 0) M1))
                          (= a!16 ((_ extract 15 0) G2)))
                      (or ((_ bit2bool 2) R4)
                          ((_ bit2bool 1) R4)
                          (= a!17 ((_ extract 15 0) H1))
                          (not ((_ bit2bool 0) R4)))
                      (or ((_ bit2bool 2) L1)
                          ((_ bit2bool 1) L1)
                          (not ((_ bit2bool 0) L1))
                          a!18)
                      (or ((_ bit2bool 1) T3)
                          ((_ bit2bool 2) T3)
                          (not ((_ bit2bool 0) T3))
                          (= ((_ extract 15 0) V4) ((_ extract 15 0) G1)))
                      (= a!19 ((_ extract 18 16) U3))
                      a!20
                      a!21
                      a!22
                      a!23
                      a!24
                      a!25
                      (= a!26 #b0)
                      a!27
                      a!28
                      a!29
                      a!30
                      a!31
                      (or (not ((_ bit2bool 0) Q4)) (not (= V1 #b0)))
                      (or ((_ bit2bool 0) E4)
                          ((_ bit2bool 0) W1)
                          (not ((_ bit2bool 1) Q1)))
                      (or ((_ bit2bool 0) D4)
                          ((_ bit2bool 0) N2)
                          (not ((_ bit2bool 0) P1)))
                      (or ((_ bit2bool 0) O4)
                          ((_ bit2bool 0) I2)
                          (not ((_ bit2bool 0) Q1)))
                      (or ((_ bit2bool 0) F4)
                          ((_ bit2bool 0) M2)
                          (not ((_ bit2bool 3) Q1)))
                      (or ((_ bit2bool 0) D5)
                          ((_ bit2bool 0) K4)
                          (not ((_ bit2bool 2) Q1)))
                      (or ((_ bit2bool 0) G4)
                          ((_ bit2bool 0) L4)
                          (not ((_ bit2bool 4) Q1)))
                      (or ((_ bit2bool 0) H4)
                          ((_ bit2bool 0) X2)
                          (not ((_ bit2bool 5) Q1)))
                      (or ((_ bit2bool 0) M4)
                          ((_ bit2bool 0) I4)
                          (not ((_ bit2bool 6) Q1)))
                      (or ((_ bit2bool 0) T2)
                          ((_ bit2bool 0) L2)
                          (not ((_ bit2bool 7) Q1)))
                      (or ((_ bit2bool 0) P4)
                          ((_ bit2bool 0) J4)
                          (not ((_ bit2bool 8) Q1))))))
       (= (INV!slice!1 A
                       B
                       C
                       D
                       E
                       F
                       G
                       H
                       I
                       J
                       K
                       L
                       M
                       N
                       O
                       P
                       Q
                       R
                       S
                       T
                       U
                       V
                       W
                       X
                       Y
                       Z
                       A1
                       B1
                       C1
                       D1
                       E1
                       F1
                       G1
                       H1
                       I1
                       J1
                       K1
                       L1
                       M1
                       N1
                       O1
                       P1
                       Q1
                       R1
                       S1
                       T1
                       U1
                       V1
                       W1
                       X1
                       Y1
                       Z1
                       A2
                       B2
                       C2
                       D2
                       E2
                       F2
                       G2
                       H2
                       I2
                       J2
                       K2
                       L2
                       M2
                       N2
                       O2
                       P2
                       Q2
                       R2
                       S2
                       T2
                       U2
                       V2
                       W2
                       X2
                       Y2
                       Z2
                       A3
                       B3
                       C3
                       D3
                       E3
                       F3
                       G3
                       H3
                       I3
                       J3
                       K3
                       L3
                       M3
                       N3
                       O3
                       P3
                       Q3
                       R3
                       S3
                       T3
                       U3
                       V3
                       W3
                       X3
                       Y3
                       Z3
                       A4
                       B4
                       C4
                       D4
                       E4
                       F4
                       G4
                       H4
                       I4
                       J4
                       K4
                       L4
                       M4
                       N4
                       O4
                       P4
                       Q4
                       R4
                       S4
                       T4
                       U4
                       V4
                       W4
                       X4
                       Y4
                       Z4
                       A5
                       B5
                       C5
                       D5
                       E5
                       F5
                       G5
                       H5
                       I5
                       J5
                       K5
                       L5
                       M5)
          a!32))))
     :weight 0))
